NAME : X-n200-k36
COMMENT : "Generated by Uchoa, Pecin, Pessoa, Poggi, Subramanian, and Vidal (2013)"
TYPE : CVRP
DIMENSION : 200
EDGE_WEIGHT_TYPE : EUC_2D
EDGE_WEIGHT_FORMAT : 
CAPACITY : 402
DISTANCE : 1.79769e+308
SERVICE_TIME : 0
NODE_COORD_SECTION
1 957 135
2 149 141
3 1 96
4 228 268
5 781 529
6 867 797
7 109 53
8 13 449
9 133 293
10 259 172
11 908 678
12 930 867
13 903 766
14 143 263
15 735 501
16 259 253
17 59 62
18 737 464
19 925 587
20 16 404
21 893 720
22 131 188
23 226 228
24 285 68
25 113 323
26 67 307
27 797 381
28 804 573
29 892 838
30 307 141
31 40 347
32 933 708
33 906 725
34 242 231
35 310 255
36 183 308
37 57 153
38 122 254
39 1 437
40 83 548
41 872 427
42 118 317
43 100 402
44 54 335
45 180 118
46 875 774
47 792 774
48 92 166
49 890 821
50 184 6
51 189 299
52 230 234
53 61 728
54 147 501
55 180 371
56 756 455
57 121 248
58 747 756
59 890 825
60 275 63
61 67 131
62 96 15
63 709 611
64 893 822
65 121 170
66 770 580
67 122 320
68 695 626
69 712 670
70 101 98
71 824 813
72 256 265
73 726 553
74 248 359
75 864 742
76 149 74
77 872 329
78 847 817
79 864 575
80 976 818
81 193 126
82 79 88
83 97 403
84 284 424
85 907 842
86 808 590
87 146 120
88 66 480
89 824 634
90 9 421
91 152 157
92 318 223
93 853 307
94 184 277
95 268 379
96 183 236
97 93 217
98 207 439
99 280 417
100 80 110
101 20 67
102 142 384
103 165 63
104 62 410
105 176 261
106 223 301
107 830 608
108 7 164
109 188 108
110 770 537
111 168 99
112 641 321
113 174 165
114 886 816
115 53 303
116 216 377
117 214 261
118 104 44
119 393 114
120 222 51
121 261 355
122 894 577
123 35 285
124 93 509
125 127 150
126 873 468
127 60 105
128 133 232
129 147 252
130 778 547
131 227 403
132 46 419
133 82 381
134 83 80
135 43 466
136 246 330
137 337 216
138 83 205
139 9 55
140 127 123
141 121 449
142 72 189
143 771 491
144 73 201
145 181 188
146 727 549
147 26 332
148 221 419
149 17 212
150 59 359
151 798 525
152 714 613
153 91 419
154 229 353
155 875 568
156 241 285
157 236 368
158 45 86
159 446 310
160 128 366
161 163 168
162 322 272
163 958 864
164 754 814
165 136 184
166 111 119
167 120 300
168 686 372
169 32 68
170 224 70
171 113 76
172 228 73
173 216 34
174 218 360
175 157 167
176 58 242
177 84 263
178 330 253
179 903 822
180 900 858
181 270 381
182 15 37
183 79 523
184 207 329
185 130 274
186 870 860
187 791 305
188 13 535
189 800 823
190 224 244
191 580 504
192 88 389
193 3 172
194 62 499
195 791 692
196 186 373
197 300 26
198 52 204
199 163 305
200 135 270
PICKUP_AND_DELIVERY_SECTION
1 0 0 0 0 0 0
2 0 0 0 0 0 83
3 0 0 0 0 0 52
4 0 0 0 0 0 73
5 0 0 0 0 70 0
6 0 0 0 0 0 86
7 0 0 0 0 0 51
8 0 0 0 0 0 74
9 0 0 0 0 84 0
10 0 0 0 0 0 52
11 0 0 0 0 0 93
12 0 0 0 0 0 91
13 0 0 0 0 89 0
14 0 0 0 0 0 64
15 0 0 0 0 0 75
16 0 0 0 0 0 64
17 0 0 0 0 61 0
18 0 0 0 0 0 2
19 0 0 0 0 0 86
20 0 0 0 0 0 95
21 0 0 0 0 100 0
22 0 0 0 0 0 73
23 0 0 0 0 0 61
24 0 0 0 0 0 83
25 0 0 0 0 60 0
26 0 0 0 0 0 85
27 0 0 0 0 0 48
28 0 0 0 0 0 66
29 0 0 0 0 70 0
30 0 0 0 0 0 91
31 0 0 0 0 0 54
32 0 0 0 0 0 55
33 0 0 0 0 64 0
34 0 0 0 0 0 56
35 0 0 0 0 0 62
36 0 0 0 0 0 89
37 0 0 0 0 100 0
38 0 0 0 0 0 96
39 0 0 0 0 0 67
40 0 0 0 0 0 21
41 0 0 0 0 15 0
42 0 0 0 0 0 55
43 0 0 0 0 0 58
44 0 0 0 0 0 84
45 0 0 0 0 85 0
46 0 0 0 0 0 91
47 0 0 0 0 0 55
48 0 0 0 0 0 79
49 0 0 0 0 79 0
50 0 0 0 0 0 82
51 0 0 0 0 0 91
52 0 0 0 0 0 89
53 0 0 0 0 22 0
54 0 0 0 0 0 31
55 0 0 0 0 0 85
56 0 0 0 0 0 22
57 0 0 0 0 72 0
58 0 0 0 0 0 59
59 0 0 0 0 0 95
60 0 0 0 0 0 99
61 0 0 0 0 98 0
62 0 0 0 0 0 54
63 0 0 0 0 0 96
64 0 0 0 0 0 69
65 0 0 0 0 97 0
66 0 0 0 0 0 67
67 0 0 0 0 0 80
68 0 0 0 0 0 65
69 0 0 0 0 86 0
70 0 0 0 0 0 90
71 0 0 0 0 0 72
72 0 0 0 0 0 69
73 0 0 0 0 80 0
74 0 0 0 0 0 72
75 0 0 0 0 0 62
76 0 0 0 0 0 78
77 0 0 0 0 24 0
78 0 0 0 0 0 88
79 0 0 0 0 0 70
80 0 0 0 0 0 71
81 0 0 0 0 76 0
82 0 0 0 0 0 93
83 0 0 0 0 0 64
84 0 0 0 0 0 80
85 0 0 0 0 91 0
86 0 0 0 0 0 75
87 0 0 0 0 0 81
88 0 0 0 0 0 79
89 0 0 0 0 71 0
90 0 0 0 0 0 51
91 0 0 0 0 0 65
92 0 0 0 0 0 68
93 0 0 0 0 39 0
94 0 0 0 0 0 69
95 0 0 0 0 0 55
96 0 0 0 0 0 100
97 0 0 0 0 98 0
98 0 0 0 0 0 87
99 0 0 0 0 0 55
100 0 0 0 0 0 79
101 0 0 0 0 68 0
102 0 0 0 0 0 99
103 0 0 0 0 0 52
104 0 0 0 0 0 99
105 0 0 0 0 85 0
106 0 0 0 0 0 77
107 0 0 0 0 0 51
108 0 0 0 0 0 55
109 0 0 0 0 54 0
110 0 0 0 0 0 70
111 0 0 0 0 0 88
112 0 0 0 0 0 9
113 0 0 0 0 91 0
114 0 0 0 0 0 65
115 0 0 0 0 0 67
116 0 0 0 0 0 93
117 0 0 0 0 70 0
118 0 0 0 0 0 73
119 0 0 0 0 0 98
120 0 0 0 0 0 64
121 0 0 0 0 68 0
122 0 0 0 0 0 100
123 0 0 0 0 0 66
124 0 0 0 0 0 8
125 0 0 0 0 98 0
126 0 0 0 0 0 15
127 0 0 0 0 0 71
128 0 0 0 0 0 92
129 0 0 0 0 72 0
130 0 0 0 0 0 76
131 0 0 0 0 0 76
132 0 0 0 0 0 93
133 0 0 0 0 97 0
134 0 0 0 0 0 79
135 0 0 0 0 0 99
136 0 0 0 0 0 58
137 0 0 0 0 84 0
138 0 0 0 0 0 82
139 0 0 0 0 0 86
140 0 0 0 0 0 77
141 0 0 0 0 75 0
142 0 0 0 0 0 59
143 0 0 0 0 0 24
144 0 0 0 0 0 69
145 0 0 0 0 95 0
146 0 0 0 0 0 83
147 0 0 0 0 0 53
148 0 0 0 0 0 56
149 0 0 0 0 57 0
150 0 0 0 0 0 67
151 0 0 0 0 0 62
152 0 0 0 0 0 62
153 0 0 0 0 91 0
154 0 0 0 0 0 60
155 0 0 0 0 0 71
156 0 0 0 0 0 68
157 0 0 0 0 84 0
158 0 0 0 0 0 64
159 0 0 0 0 0 71
160 0 0 0 0 0 82
161 0 0 0 0 59 0
162 0 0 0 0 0 72
163 0 0 0 0 0 95
164 0 0 0 0 0 63
165 0 0 0 0 94 0
166 0 0 0 0 0 92
167 0 0 0 0 0 98
168 0 0 0 0 0 14
169 0 0 0 0 85 0
170 0 0 0 0 0 52
171 0 0 0 0 0 85
172 0 0 0 0 0 96
173 0 0 0 0 62 0
174 0 0 0 0 0 76
175 0 0 0 0 0 72
176 0 0 0 0 0 94
177 0 0 0 0 52 0
178 0 0 0 0 0 51
179 0 0 0 0 0 54
180 0 0 0 0 0 96
181 0 0 0 0 96 0
182 0 0 0 0 0 82
183 0 0 0 0 0 10
184 0 0 0 0 0 54
185 0 0 0 0 82 0
186 0 0 0 0 0 58
187 0 0 0 0 0 28
188 0 0 0 0 0 37
189 0 0 0 0 90 0
190 0 0 0 0 0 91
191 0 0 0 0 0 95
192 0 0 0 0 0 89
193 0 0 0 0 88 0
194 0 0 0 0 0 100
195 0 0 0 0 0 87
196 0 0 0 0 0 66
197 0 0 0 0 88 0
198 0 0 0 0 0 74
199 0 0 0 0 0 70
200 0 0 0 0 0 80
